1,1,6,2,7,3,8,3,2,5,9,6,8,6,10,10,8,9,9,10;9,1,5,3,1,2,1,3,2,3,4,5,3,7,7,6,10,9,6,10,8,10;10,1,5,2,5,4,6,5,4,6,7,5,5,6,3,9,2,9,9,9;2,2,3,2,3,3,3,4,1,4,6,6,10,6,8,4,4,7,1,9;7,1,8,1,9,5,1,5,10,8,5,8,5,10;6,1,10,3,5,5,3,6,1,6,3,8,2,8,8,8,7,10;9,2,9,3,6,3,3,5,8,2,7,4,2,6,1,7,6,9,7,9,4,9;10,2,7,2,10,7,6,8,1,8,8,7,7,8,4,8,5,9;5,1,3,1,4,4,10,4,6,4,2,4,2,7,8,5,7,7,9,7,9,8,2,10;2,1,4,1,4,2,4,3,9,4,10,5,6,7,5,7,3,10,1,10,4,10;
